NAME          DCAP_2_4_3_500_SS320
ROWS
 N  OBJ
 L  CON1
 L  CON2
 L  CON3
 L  CON4
 L  CON5
 L  CON6
 L  CON7
 L  CON8
 L  CON9
 L  CON10
 L  CON11
 L  CON12
 E  CON13
 E  CON14
 E  CON15
 E  CON16
 E  CON17
 E  CON18
 E  CON19
 E  CON20
 E  CON21
 E  CON22
 E  CON23
 E  CON24
COLUMNS
    x[1,1]    OBJ       6.180167      CON1      1.000000    
    x[1,1]    CON7      -1.000000     CON8      -1.000000   
    x[1,1]    CON9      -1.000000   
    x[1,2]    OBJ       6.563535      CON2      1.000000    
    x[1,2]    CON8      -1.000000     CON9      -1.000000   
    x[1,3]    OBJ       7.443064      CON3      1.000000    
    x[1,3]    CON9      -1.000000   
    x[2,1]    OBJ       6.732585      CON4      1.000000    
    x[2,1]    CON10     -1.000000     CON11     -1.000000   
    x[2,1]    CON12     -1.000000   
    x[2,2]    OBJ       5.039546      CON5      1.000000    
    x[2,2]    CON11     -1.000000     CON12     -1.000000   
    x[2,3]    OBJ       6.054841      CON6      1.000000    
    x[2,3]    CON12     -1.000000   
    MARKER    'MARKER'                'INTORG'
    u[1,1]    OBJ       48.076654     CON1      -1.000000   
    u[1,2]    OBJ       20.066487     CON2      -1.000000   
    u[1,3]    OBJ       32.230043     CON3      -1.000000   
    u[2,1]    OBJ       49.996186     CON4      -1.000000   
    u[2,2]    OBJ       49.466655     CON5      -1.000000   
    u[2,3]    OBJ       27.484319     CON6      -1.000000   
    y[1,1,1]  OBJ       8.293112      CON7      1.383128    
    y[1,1,1]  CON13     1.000000    
    y[1,1,2]  OBJ       6.510573      CON8      1.249053    
    y[1,1,2]  CON14     1.000000    
    y[1,1,3]  OBJ       5.590709      CON9      1.470621    
    y[1,1,3]  CON15     1.000000    
    y[1,2,1]  OBJ       7.247508      CON7      0.954475    
    y[1,2,1]  CON16     1.000000    
    y[1,2,2]  OBJ       6.026306      CON8      1.140120    
    y[1,2,2]  CON17     1.000000    
    y[1,2,3]  OBJ       7.514367      CON9      1.195801    
    y[1,2,3]  CON18     1.000000    
    y[1,3,1]  OBJ       6.958843      CON7      1.034063    
    y[1,3,1]  CON19     1.000000    
    y[1,3,2]  OBJ       9.578346      CON8      0.992301    
    y[1,3,2]  CON20     1.000000    
    y[1,3,3]  OBJ       7.967999      CON9      1.429673    
    y[1,3,3]  CON21     1.000000    
    y[1,4,1]  OBJ       7.742133      CON7      0.690928    
    y[1,4,1]  CON22     1.000000    
    y[1,4,2]  OBJ       8.121226      CON8      1.215442    
    y[1,4,2]  CON23     1.000000    
    y[1,4,3]  OBJ       6.165932      CON9      0.551406    
    y[1,4,3]  CON24     1.000000    
    y[2,1,1]  OBJ       5.376650      CON10     1.383128    
    y[2,1,1]  CON13     1.000000    
    y[2,1,2]  OBJ       5.901481      CON11     1.249053    
    y[2,1,2]  CON14     1.000000    
    y[2,1,3]  OBJ       9.512688      CON12     1.470621    
    y[2,1,3]  CON15     1.000000    
    y[2,2,1]  OBJ       6.083040      CON10     0.954475    
    y[2,2,1]  CON16     1.000000    
    y[2,2,2]  OBJ       9.970216      CON11     1.140120    
    y[2,2,2]  CON17     1.000000    
    y[2,2,3]  OBJ       6.450480      CON12     1.195801    
    y[2,2,3]  CON18     1.000000    
    y[2,3,1]  OBJ       8.654525      CON10     1.034063    
    y[2,3,1]  CON19     1.000000    
    y[2,3,2]  OBJ       6.235505      CON11     0.992301    
    y[2,3,2]  CON20     1.000000    
    y[2,3,3]  OBJ       9.780375      CON12     1.429673    
    y[2,3,3]  CON21     1.000000    
    y[2,4,1]  OBJ       8.421976      CON10     0.690928    
    y[2,4,1]  CON22     1.000000    
    y[2,4,2]  OBJ       9.155905      CON11     1.215442    
    y[2,4,2]  CON23     1.000000    
    y[2,4,3]  OBJ       6.826099      CON12     0.551406    
    y[2,4,3]  CON24     1.000000    
    z[1,1]    OBJ       522.352012    CON13     1.000000    
    z[1,2]    OBJ       722.588869    CON14     1.000000    
    z[1,3]    OBJ       908.276333    CON15     1.000000    
    z[2,1]    OBJ       533.298964    CON16     1.000000    
    z[2,2]    OBJ       630.166103    CON17     1.000000    
    z[2,3]    OBJ       649.278030    CON18     1.000000    
    z[3,1]    OBJ       823.848018    CON19     1.000000    
    z[3,2]    OBJ       541.839080    CON20     1.000000    
    z[3,3]    OBJ       612.477786    CON21     1.000000    
    z[4,1]    OBJ       519.630791    CON22     1.000000    
    z[4,2]    OBJ       774.331191    CON23     1.000000    
    z[4,3]    OBJ       516.464721    CON24     1.000000    
    MARKER    'MARKER'                 'INTEND'
RHS
    RHS       CON1      -0.000000     CON2      -0.000000   
    RHS       CON3      -0.000000     CON4      -0.000000   
    RHS       CON5      -0.000000     CON6      -0.000000   
    RHS       CON7      -0.000000     CON8      -0.000000   
    RHS       CON9      -0.000000     CON10     -0.000000   
    RHS       CON11     -0.000000     CON12     -0.000000   
    RHS       CON13     1.000000      CON14     1.000000    
    RHS       CON15     1.000000      CON16     1.000000    
    RHS       CON17     1.000000      CON18     1.000000    
    RHS       CON19     1.000000      CON20     1.000000    
    RHS       CON21     1.000000      CON22     1.000000    
    RHS       CON23     1.000000      CON24     1.000000    
BOUNDS
 BV BOUND     u[1,1]  
 BV BOUND     u[1,2]  
 BV BOUND     u[1,3]  
 BV BOUND     u[2,1]  
 BV BOUND     u[2,2]  
 BV BOUND     u[2,3]  
 BV BOUND     y[1,1,1]
 BV BOUND     y[1,1,2]
 BV BOUND     y[1,1,3]
 BV BOUND     y[1,2,1]
 BV BOUND     y[1,2,2]
 BV BOUND     y[1,2,3]
 BV BOUND     y[1,3,1]
 BV BOUND     y[1,3,2]
 BV BOUND     y[1,3,3]
 BV BOUND     y[1,4,1]
 BV BOUND     y[1,4,2]
 BV BOUND     y[1,4,3]
 BV BOUND     y[2,1,1]
 BV BOUND     y[2,1,2]
 BV BOUND     y[2,1,3]
 BV BOUND     y[2,2,1]
 BV BOUND     y[2,2,2]
 BV BOUND     y[2,2,3]
 BV BOUND     y[2,3,1]
 BV BOUND     y[2,3,2]
 BV BOUND     y[2,3,3]
 BV BOUND     y[2,4,1]
 BV BOUND     y[2,4,2]
 BV BOUND     y[2,4,3]
 BV BOUND     z[1,1]  
 BV BOUND     z[1,2]  
 BV BOUND     z[1,3]  
 BV BOUND     z[2,1]  
 BV BOUND     z[2,2]  
 BV BOUND     z[2,3]  
 BV BOUND     z[3,1]  
 BV BOUND     z[3,2]  
 BV BOUND     z[3,3]  
 BV BOUND     z[4,1]  
 BV BOUND     z[4,2]  
 BV BOUND     z[4,3]  
ENDATA
